c SAT Generator for power-law distributed variable frequencies
c -g u -v 20 -c 91 -k 3 -p 2.750000 -b 3.200000 -f /home/schmidt/Devel/ni-kop-sat/data/ensemble/ruf20-91/ruf20-91-604 -u 1 -U 1 -s 1712834
p cnf 20 91
-2 12 19 0
5 -8 12 0
1 4 12 0
-12 -14 -20 0
-2 -3 19 0
-7 -10 14 0
-16 17 19 0
-5 -17 19 0
-2 14 -16 0
-3 -8 -11 0
-2 15 -20 0
6 -7 -16 0
2 8 -11 0
-4 -17 -18 0
3 6 -7 0
9 -15 -19 0
-6 -11 15 0
2 7 -15 0
-1 6 -19 0
-11 -14 -19 0
-1 -7 -8 0
12 -13 -19 0
-1 -14 -16 0
-7 -8 -18 0
4 -9 -15 0
-7 8 -12 0
-11 -14 15 0
12 -14 -19 0
9 11 -14 0
-5 -11 -13 0
-2 -3 15 0
4 -9 -19 0
10 -11 18 0
-2 14 16 0
-10 12 -13 0
-1 -3 20 0
-1 -2 11 0
6 -7 -18 0
-5 -16 18 0
3 9 18 0
8 -14 16 0
-5 6 -15 0
-3 16 -20 0
-12 14 -16 0
-3 7 8 0
7 16 17 0
7 18 20 0
-12 -14 -17 0
1 7 13 0
1 3 20 0
7 -14 17 0
-4 -13 16 0
4 -7 16 0
-2 -7 -20 0
3 13 15 0
1 -3 -8 0
-9 -13 -17 0
2 -4 -13 0
-10 -16 20 0
3 5 11 0
2 3 -9 0
3 4 9 0
9 10 -11 0
-13 -17 -20 0
-8 -15 -19 0
-4 5 -13 0
-10 -13 -20 0
-4 6 -20 0
1 -15 17 0
2 5 -20 0
1 2 -9 0
-8 18 20 0
5 7 -16 0
7 -13 16 0
6 -9 -13 0
1 3 -19 0
-8 15 19 0
9 12 20 0
9 -10 -15 0
-2 10 -12 0
1 14 -20 0
-7 15 19 0
-3 -5 -16 0
8 -17 -19 0
5 -16 17 0
9 -12 -19 0
2 -13 -17 0
6 -19 20 0
-1 -6 -10 0
-4 -7 -9 0
-4 15 -19 0
